peakDumbCharging = 18500; 
Machine = anon_enum(16); 
machineSpeed = [3700,3700,3700,3700,3700,3700,3700,3700,3700,3700,3700,3700,3700,3700,3700,3700]; 
machineLoad = [3700,3700,3700,3700,3700,3700,3700,3700,3700,3700,3700,3700,3700,3700,3700,3700]; 
Car = anon_enum(23); 
demandCar = [9960,2920,8840,10840,16680,9920,2320,17160,10680,7160,18880,4800,8160,15760,3680,7640,5680,6400,4960,3560,6520,29280,13200]; 
arrivalCar = [81,81,75,73,69,69,69,66,65,64,63,61,57,55,55,53,49,48,48,47,46,35,32]; 
departureCar = [85,83,80,78,75,73,70,73,70,68,69,63,61,61,57,56,52,51,52,53,51,49,37]; 
